Geometry = GenFormat {
64 S
C
1           1   7.0991022078449229        7.1176978503818233        7.1192253267900849
2           1  0.85875735212259818       0.86730712797593923       0.88228492026250205
3           1   1.7724981765408738        1.8117079084444114        7.1202605842991389
4           1   2.7020851677991709        2.6812143298297872       0.90126257578999247
5           1   1.7499536897442092E-002   1.7943926089473383        1.7883756988219965
6           1  0.88548346158512803        2.6941077988745641        2.7079700116063838
7           1   1.7949694275597323        7.1208388695064366        1.7778490880342062
8           1   2.6428776825853135       0.86819064557059034        2.6706977070383431
9           1   1.5952741935751687E-002   1.7125567047865144E-002   3.5686029630188520
10           1  0.89189418228158646       0.89632775552401345        4.4392651348513272
11           1   1.7661766890762434        1.7644661648063200        3.5501433292375677
12           1   2.6773698526525762        2.6490062473261902        4.4272468124476818
13           1   1.0152882035439601E-002   1.7713317686697341        5.3422269491254681
14           1  0.85828955186850153        2.6536259841048251        6.2416655677423991
15           1   1.8042007603520480        2.0606480088335891E-002   5.3533016056688805
16           1   2.6896424323389487       0.90724672901941017        6.2246369048869603
17           1   1.7751513938923384E-002   3.5774963979040693        7.1129914280664082
18           1  0.90998589415706488        4.4592285396098719       0.91025670381885015
19           1   1.7664137679612328        5.3760575168565214        1.5521735920615882E-002
20           1   2.6837773068718556        6.2207706569317374       0.89861259993700082
21           1   3.3513505717109498E-003   5.3634381017046202        1.7741888188988049
22           1  0.85682937419562433        6.2383190091732157        2.6602671107486127
23           1   1.7611854841096048        3.5498059667660664        1.7970941876108573
24           1   2.6672263042138420        4.4635079166255940        2.6461258171054465
25           1   7.1325506203878071        3.5516599957147768        3.5997911708072339
26           1  0.92043341411682589        4.4821827318039666        4.4792626677276708
27           1   1.7722075479395605        5.3370857567319971        3.5555912666565872
28           1   2.6749820513403719        6.2516174799755309        4.4830464665899150
29           1   5.6760138799371159E-003   5.3710441537566664        5.3510846630548636
30           1  0.88074766580861097        6.2498386945210678        6.2641773377469470
31           1   1.7931367465778008        3.5923870686439527        5.3698688120270530
32           1   2.6531726760516441        4.4634993336898230        6.2739736034638582
33           1   3.5572250176048503        7.1189378344744974        2.5948178998135413E-002
34           1   4.4589662487751598       0.88928483217422805       0.90492446754522282
35           1   5.3679507777511350        1.7598284078435245        7.1050135473280012
36           1   6.2715862698399576        2.6584896481734623       0.89023544824466927
37           1   3.5918968211320110        1.7687047455797689        1.7938779121255370
38           1   4.4356602363656128        2.6622628469636749        2.6767337215824929
39           1   5.3710531004613964        2.2425231889447323E-004   1.7835306715141870
40           1   6.2264960602676496       0.88667808237557877        2.6533633917322548
41           1   3.5833376724605999        5.4251596479801900E-003   3.6002136883840037
42           1   4.4536648181821725       0.90942176513845829        4.4597046311693962
43           1   5.3145432033062274        1.8053225325743170        3.5841823465704099
44           1   6.2101964959928608        2.6426718629877559        4.4860803097063418
45           1   3.5456517248869961        1.8027197239105941        5.3653270531250570
46           1   4.4765893925470346        2.7011674323395827        6.2204648123113344
47           1   5.3328135014838738        2.9515172695427857E-002   5.3478959274847160
48           1   6.2156684711131014       0.91502699527436282        6.2303099433296394
49           1   3.5365018905117043        3.5515576578211898        7.1067118456820548
50           1   4.4512259810720822        4.4264550688246773       0.90019076240565898
51           1   5.3686649455492681        5.3778950554321669        7.1095409619287224
52           1   6.2305985021572807        6.2209751676082474       0.86210067594238504
53           1   3.5966644024923400        5.3727032944094377        1.7975938597494325
54           1   4.4855665266554654        6.2212619680146961        2.6996582002925629
55           1   5.3644084404653638        3.5498683155489790        1.7961678756465096
56           1   6.2616786252261916        4.4589483538708095        2.6481714966103200
57           1   3.5886460000179365        3.5810064800183086        3.5817145997299336
58           1   4.4622883448109310        4.4672863502444295        4.4787209147838904
59           1   5.3552750288049999        5.3183909016691899        3.5565079059283367
60           1   6.2685882402311126        6.2598175807047909        4.4658176961953302
61           1   3.5885879657954951        5.3543587935921444        5.3623481228347476
62           1   4.4757858761408995        6.2638443192814739        6.2278641424916206
63           1   5.3312045652645432        3.5543773631312514        5.3184522024237060
64           1   6.2546349550351286        4.4364387683291131        6.2097629424009675
0.0 0.0 0.0
7.1340000000000003                0           0
0   7.1340000000000003                0
0           0   7.1340000000000003
}
Driver = {}
Hamiltonian = DFTB {
  Scc = Yes
  SccTolerance = 1e-5
  SlaterKosterFiles = Type2FileNames {
    Prefix = "./mio-1-1/"
    Separator = "-"
    Suffix = ".skf"
    LowerCaseTypeName = No
  }
  MaxAngularMomentum = C {
"p"
  }
  KPointsAndWeights = SuperCellFolding {
1 0 0
0 1 0
0 0 1
0.0 0.0 0.0
  }
  Differentiation = FiniteDiff {
    Delta = 1.0E-2
  }
  ShellResolvedSCC = No
  ReadInitialCharges = No
  InitialCharges = {}
  EwaldParameter = 0.0
  EwaldTolerance = 1.0E-9
  SpinPolarisation = {}
  ElectricField = {}
  Solver = RelativelyRobust {}
  Charge = 0.0
  Dispersion = SimpleDftD3 {
    a1 = 0.5719
    a2 = 3.6017
    s6 = 1.0
    s8 = 0.5883
    s10 = 0.0000000000000000
    alpha = 14.000000000000000
    weightingFactor = 4.0000000000000000
    cutoffInter = 64.000000000000000
    CoordinationNumber = exp {
      CutCN = 0.0000000000000000
      Cutoff = 40.000000000000000
      Radii = CovalentRadiiD3 {
        C = 1.8897259885789233
      }
    }
  }
  Solvation = {}
  ForceEvaluation = "Traditional"
  PolynomialRepulsive = {}
  OldSKInterpolation = No
  ConvergentSCCOnly = Yes
  HCorrection = None {}
  MaxSCCIterations = 100
  OnSiteCorrection = {}
  Electrostatics = GammaFunctional {}
  ThirdOrder = No
  ThirdOrderFull = No
  Mixer = Broyden {
    MixingParameter = 0.20000000000000001
    InverseJacobiWeight = 1.0000000000000000E-002
    MinimalWeight = 1.0000000000000000
    MaximalWeight = 100000.00000000000
    WeightFactor = 1.0000000000000000E-002
  }
  Filling = Fermi {
    Temperature = 0.0000000000000000
    IndependentKFilling = No
  }
}
Options = {
  WriteAutotestTag = No
  WriteDetailedOut = No
  WriteDetailedXML = No
  WriteResultsTag = Yes
  RestartFrequency = 0
  RandomSeed = 0
  WriteHS = No
  WriteRealHS = No
  MinimiseMemoryUsage = No
  ShowFoldedCoords = No
  TimingVerbosity = 1
  WriteChargesAsText = Yes
  WriteCharges = Yes
  BinaryAccessTypes = {
 "stream"
  }
}
ParserOptions = {
  ParserVersion = 13
  WriteHSDInput = Yes
  StopAfterParsing = No
  IgnoreUnprocessedNodes = No
}
Analysis = {
  CalculateForces = Yes
  ProjectStates = {}
  WriteEigenvectors = No
  WriteBandOut = No
  MullikenAnalysis = No
  AtomResolvedEnergies = No
}
ExcitedState = {}
Reks = None {}
