Geometry = VaspFormat {
POSCAR file written by OVITO Basic 3.8.4
1
7.134 0 0
0 7.134 0
0 0 7.134
C
64
Cartesian
7.12982 7.11706 7.05238
0.939705 0.937326 0.91499
1.80036 1.75506 0.0720538
2.67428 2.72912 0.887282
0.0298479 1.87109 1.79569
0.834992 2.75168 2.65264
1.73505 7.11913 1.77383
2.60495 0.903279 2.71914
7.12703 7.06809 3.60417
0.929338 0.861049 4.52036
1.80307 1.7613 3.60757
2.73269 2.65357 4.51927
0.004215 1.71746 5.37928
0.856285 2.61572 6.24224
1.77007 7.06481 5.41419
2.7271 0.923609 6.25283
7.11321 3.50706 7.07071
0.936131 4.43792 0.937515
1.82291 5.31055 0.0165647
2.7177 6.20401 0.891165
7.08313 5.29801 1.82637
0.938055 6.284 2.62945
1.75779 3.60124 1.74097
2.72088 4.4945 2.64535
7.09795 3.53232 3.5488
0.90317 4.39593 4.39921
1.78417 5.28025 3.6065
2.66143 6.27993 4.43706
0.0497277 5.40938 5.31265
0.837256 6.26822 6.28064
1.84246 3.53712 5.36019
2.73234 4.53294 6.25394
3.61552 0.0335801 7.10359
4.51213 0.882333 0.917666
5.34189 1.7755 7.05196
6.30772 2.68122 0.82538
3.50862 1.77156 1.7277
4.39616 2.6338 2.71795
5.27778 0.0864188 1.85479
6.20091 0.868338 2.67345
3.54837 7.0776 3.56878
4.50953 0.966271 4.3818
5.28154 1.84644 3.63462
6.24427 2.70419 4.38146
3.60892 1.78815 5.28045
4.4288 2.65042 6.21257
5.37787 0.0255611 5.40272
6.19385 0.946953 6.23233
3.53809 3.59348 7.09606
4.5276 4.48808 0.96063
5.32375 5.42479 0.0407336
6.20899 6.25223 0.860002
3.5117 5.2847 1.77168
4.53207 6.21823 2.59489
5.28832 3.58477 1.78726
6.17296 4.44121 2.69111
3.62948 3.52421 3.56758
4.43282 4.41103 4.47982
5.30605 5.32616 3.61696
6.20742 6.31872 4.48669
3.55831 5.28966 5.35185
4.48977 6.2106 6.2596
5.37 3.62117 5.33542
6.27366 4.4719 6.18951
}
Driver = {}
Hamiltonian = DFTB {
  Scc = Yes
  SccTolerance = 1e-5
  SlaterKosterFiles = Type2FileNames {
    Prefix = "./mio-1-1/"
    Separator = "-"
    Suffix = ".skf"
    LowerCaseTypeName = No
  }
  MaxAngularMomentum = C {
"p"
  }
  KPointsAndWeights = SuperCellFolding {
1 0 0
0 1 0
0 0 1
0.0 0.0 0.0
  }
  Differentiation = FiniteDiff {
    Delta = 1.0E-2
  }
  ShellResolvedSCC = No
  ReadInitialCharges = No
  InitialCharges = {}
  EwaldParameter = 0.0
  EwaldTolerance = 1.0E-9
  SpinPolarisation = {}
  ElectricField = {}
  Solver = RelativelyRobust {}
  Charge = 0.0
  Dispersion = SimpleDftD3 {
    a1 = 0.5719
    a2 = 3.6017
    s6 = 1.0
    s8 = 0.5883
    s10 = 0.0000000000000000
    alpha = 14.000000000000000
    weightingFactor = 4.0000000000000000
    cutoffInter = 64.000000000000000
    CoordinationNumber = exp {
      CutCN = 0.0000000000000000
      Cutoff = 40.000000000000000
      Radii = CovalentRadiiD3 {
        C = 1.8897259885789233
      }
    }
  }
  Solvation = {}
  ForceEvaluation = "Traditional"
  PolynomialRepulsive = {}
  OldSKInterpolation = No
  ConvergentSCCOnly = Yes
  HCorrection = None {}
  MaxSCCIterations = 100
  OnSiteCorrection = {}
  Electrostatics = GammaFunctional {}
  ThirdOrder = No
  ThirdOrderFull = No
  Mixer = Broyden {
    MixingParameter = 0.20000000000000001
    InverseJacobiWeight = 1.0000000000000000E-002
    MinimalWeight = 1.0000000000000000
    MaximalWeight = 100000.00000000000
    WeightFactor = 1.0000000000000000E-002
  }
  Filling = Fermi {
    Temperature = 0.0000000000000000
    IndependentKFilling = No
  }
}
Options = {
  WriteAutotestTag = No
  WriteDetailedOut = Yes
  WriteDetailedXML = No
  WriteResultsTag = Yes
  RestartFrequency = 0
  RandomSeed = 0
  WriteHS = No
  WriteRealHS = No
  MinimiseMemoryUsage = No
  ShowFoldedCoords = No
  TimingVerbosity = 1
  WriteChargesAsText = Yes
  WriteCharges = Yes
  BinaryAccessTypes = {
 "stream"
  }
}
ParserOptions = {
  ParserVersion = 13
  WriteHSDInput = Yes
  StopAfterParsing = No
  IgnoreUnprocessedNodes = No
}
Analysis = {
  CalculateForces = Yes
  ProjectStates = {}
  WriteEigenvectors = No
  WriteBandOut = No
  MullikenAnalysis = No
  AtomResolvedEnergies = No
}
ExcitedState = {}
Reks = None {}
