# small W unit cell for use with DFTB+

variable        mode index file
 
if "${mode} == file" then &
  "message client md file tmp.couple" &
elif "${mode} == zmq" &
  "message client md zmq localhost:8888" &

units           metal
atom_style      atomic
atom_modify     sort 0 0.0 map yes

read_data data.diamond

replicate       1 1 1

mass            1 12.01

velocity        all create 300.0 87287 loop geom

neighbor        0.3 bin
neigh_modify    delay 0 every 10 check no

fix             1 all nve
fix             2 all client/md
fix_modify      2 energy yes

dump            1 all cfg 1 cfg/run.*.cfg mass type xs ys zs id type
dump_modify     1 element C

thermo          1
run             10

