POSCAR file written by OVITO Basic 3.8.4
1
7.134 0 0
0 7.134 0
0 0 7.134
C 
64 
Cartesian
  7.13169 7.12348 7.08445
  0.920823 0.919355 0.905729
  1.79354 1.76618 0.0436208
  2.67475 2.70772 0.889127
  0.018105 1.83647 1.79097
  0.857325 2.72138 2.66154
  1.75409 7.12494 1.77771
  2.63282 0.898871 2.70189
  7.12973 7.09404 3.58953
  0.914492 0.873382 4.49585
  1.79544 1.76996 3.59132
  2.70992 2.66213 4.49546
  0.00256722 1.74358 5.36803
  0.870181 2.63944 6.24223
  1.77526 7.09212 5.38886
  2.70647 0.911052 6.24862
  7.1213 3.53066 7.09591
  0.91876 4.44614 0.919603
  1.80736 5.32626 0.00990665
  2.70091 6.21909 0.891464
  7.10331 5.31875 1.80945
  0.91999 6.2678 2.64739
  1.76782 3.5877 1.75761
  2.70292 4.4806 2.657
  7.1123 3.54592 3.55614
  0.898624 4.4209 4.42274
  1.78375 5.30799 3.59108
  2.66695 6.26531 4.44544
  0.0300702 5.38611 5.3277
  0.858618 6.25817 6.2655
  1.8191 3.54902 5.35628
  2.70987 4.50371 6.24929
  3.59614 0.0203779 7.11556
  4.49117 0.885857 0.907555
  5.34533 1.77855 7.0843
  6.28201 2.67885 0.851711
  3.53182 1.77626 1.74968
  4.421 2.65028 2.70124
  5.30639 0.0522522 1.82669
  6.21722 0.877336 2.67394
  3.55566 7.09981 3.56826
  4.48963 0.937034 4.41203
  5.30865 1.8214 3.60817
  6.24353 2.69278 4.41187
  3.59222 1.7864 5.30813
  4.4406 2.66012 6.22444
  5.36713 0.0153187 5.38213
  6.21293 0.925234 6.23634
  3.54935 3.58295 7.11105
  4.50056 4.47645 0.933529
  5.33424 5.39549 0.0245718
  6.22212 6.24807 0.87245
  3.53327 5.31059 1.77648
  4.50335 6.2279 2.62652
  5.31286 3.57793 1.78569
  6.20052 4.44822 2.68466
  3.60491 3.54116 3.56728
  4.44309 4.42992 4.47149
  5.32369 5.33574 3.59715
  6.22119 6.28858 4.47556
  3.56162 5.31357 5.3514
  4.47754 6.22301 6.25283
  5.36223 3.59977 5.34144
  6.26117 4.46653 6.21041
